benchmarks/VRPTW/TSPTW/solution/n80w20.005.txt.solution
1 64 17 13 23 5 48 71 10 72 59 67 40 65 6 62 28 51 43 55 12 70 21 7 32 79 49 56 60 54 19 38 3 63 69 35 8 16 29 47 74 75 76 33 50 26 36 77 42 11 66 39 20 68 31 41 37 44 30 27 2 46 53 45 18 52 78 58 22 24 4 80 9 14 15 61 73 57 25 81 34 
748
